board = [|0, -1, -1, -1, 0
         |-1, _,  _,  _, 0
         |-1, _,  _,  _, 0
         |-1, _,  _, -1, -1
         |0, -1,  _,  _, _
         |0, -1,  _,  _, _|];
         
vertical = [|1, 2, 9,  3
            |1, 3, 34, 5
            |1, 4, 4,  2
            |4, 4, 11, 2
            |4, 5, 3,  2|];

horizontal = [|2, 1, 9,  3
              |3, 1, 13, 3
              |4, 1, 13, 2
              |5, 2, 7,  <3
              |6, 2, 19, 3|];